x low 4.00
p edge 118 334
n 0 1.00
n 1 1.00
n 33 1.00
n 32 1.00
n 31 1.00
n 30 1.00
n 27 1.00
n 3 1.00
n 5 1.00
n 23 1.00
n 21 1.00
n 6 1.00
n 8 1.00
n 7 1.00
n 39 1.00
n 18 1.00
n 9 1.00
n 11 1.00
n 14 1.00
n 13 1.00
n 42 1.00
n 43 1.00
n 44 1.00
n 90 1.00
n 41 1.00
n 15 1.00
n 40 1.00
n 16 1.00
n 17 1.00
n 19 1.00
n 20 1.00
n 67 1.00
n 68 1.00
n 69 1.00
n 22 1.00
n 37 1.00
n 38 1.00
n 36 1.00
n 35 1.00
n 24 1.00
n 34 1.00
n 25 1.00
n 26 1.00
n 28 1.00
n 29 1.00
n 55 1.00
n 56 1.00
n 57 1.00
n 113 1.00
n 48 1.00
n 49 1.00
n 50 1.00
n 51 1.00
n 52 1.00
n 53 1.00
n 54 1.00
n 45 1.00
n 60 1.00
n 61 1.00
n 62 1.00
n 63 1.00
n 64 1.00
n 65 1.00
n 66 1.00
n 70 1.00
n 46 1.00
n 47 1.00
n 58 1.00
n 112 1.00
n 82 1.00
n 81 1.00
n 59 1.00
n 80 1.00
n 79 1.00
n 78 1.00
n 86 1.00
n 76 1.00
n 75 1.00
n 71 1.00
n 74 1.00
n 73 1.00
n 72 1.00
n 88 1.00
n 92 1.00
n 77 1.00
n 99 1.00
n 84 1.00
n 103 1.00
n 83 1.00
n 110 1.00
n 111 1.00
n 85 1.00
n 107 1.00
n 104 1.00
n 109 1.00
n 108 1.00
n 87 1.00
n 101 1.00
n 100 1.00
n 102 1.00
n 89 1.00
n 96 1.00
n 93 1.00
n 98 1.00
n 97 1.00
n 91 1.00
n 115 1.00
n 94 1.00
n 95 1.00
n 120 1.00
n 122 1.00
n 129 1.00
n 114 1.00
n 105 1.00
n 106 1.00
n 134 1.00
n 136 1.00
n 143 1.00
e 0 1
e 0 33
e 0 32
e 0 31
e 0 30
e 1 33
e 1 27
e 1 3
e 3 27
e 5 27
e 5 23
e 5 21
e 5 6
e 5 8
e 6 7
e 6 21
e 6 8
e 7 21
e 7 39
e 7 18
e 7 8
e 7 9
e 8 9
e 9 18
e 11 18
e 11 14
e 13 14
e 13 42
e 13 43
e 13 44
e 13 90
e 14 41
e 14 15
e 14 18
e 14 42
e 15 40
e 15 16
e 15 41
e 15 18
e 16 40
e 16 17
e 16 19
e 16 18
e 17 19
e 17 20
e 17 40
e 18 19
e 18 39
e 19 39
e 19 20
e 20 39
e 20 40
e 20 67
e 20 68
e 20 69
e 21 23
e 21 22
e 21 37
e 21 38
e 21 39
e 22 23
e 22 36
e 22 37
e 23 35
e 23 24
e 23 27
e 23 36
e 24 34
e 24 25
e 24 35
e 24 27
e 25 34
e 25 26
e 25 28
e 25 27
e 26 28
e 26 29
e 26 34
e 27 28
e 27 33
e 28 33
e 28 29
e 29 33
e 29 34
e 29 55
e 29 56
e 29 57
e 30 113
e 30 48
e 30 31
e 31 48
e 31 32
e 32 48
e 32 33
e 33 48
e 33 49
e 33 50
e 33 51
e 33 52
e 33 53
e 33 54
e 33 55
e 34 35
e 34 57
e 34 45
e 35 45
e 35 36
e 36 45
e 36 37
e 37 38
e 37 45
e 37 60
e 38 39
e 38 60
e 39 60
e 39 61
e 39 62
e 39 63
e 39 64
e 39 65
e 39 66
e 39 67
e 40 41
e 40 69
e 40 42
e 41 42
e 42 43
e 42 69
e 43 69
e 43 44
e 44 69
e 44 70
e 44 90
e 45 46
e 45 57
e 45 60
e 46 57
e 46 47
e 46 60
e 47 57
e 47 58
e 47 60
e 48 113
e 48 112
e 48 82
e 48 49
e 49 82
e 49 50
e 50 82
e 50 51
e 51 82
e 51 52
e 52 82
e 52 53
e 53 82
e 53 54
e 54 82
e 54 55
e 55 82
e 55 56
e 56 82
e 56 57
e 57 82
e 57 81
e 57 58
e 57 59
e 57 80
e 57 79
e 58 59
e 58 60
e 59 79
e 59 78
e 59 60
e 59 86
e 60 86
e 60 76
e 60 61
e 61 76
e 61 62
e 62 76
e 62 63
e 63 76
e 63 64
e 64 76
e 64 65
e 65 76
e 65 66
e 66 76
e 66 67
e 67 76
e 67 68
e 68 76
e 68 69
e 69 76
e 69 75
e 69 70
e 69 71
e 69 74
e 69 73
e 70 71
e 70 90
e 71 73
e 71 72
e 71 90
e 72 88
e 72 73
e 72 92
e 72 90
e 73 88
e 73 74
e 74 77
e 74 75
e 74 88
e 75 77
e 75 76
e 76 77
e 76 86
e 77 86
e 77 99
e 77 88
e 78 84
e 78 79
e 78 103
e 78 86
e 79 84
e 79 80
e 80 83
e 80 81
e 80 84
e 81 83
e 81 82
e 82 83
e 82 110
e 82 111
e 82 112
e 83 110
e 83 84
e 84 85
e 84 110
e 84 107
e 84 104
e 84 103
e 85 110
e 85 109
e 85 108
e 85 107
e 86 103
e 86 87
e 86 101
e 86 100
e 86 99
e 87 103
e 87 102
e 87 101
e 88 89
e 88 99
e 88 96
e 88 93
e 88 92
e 89 99
e 89 98
e 89 97
e 89 96
e 90 92
e 90 91
e 91 92
e 91 115
e 92 94
e 92 93
e 92 115
e 93 95
e 93 96
e 93 94
e 94 95
e 94 115
e 95 96
e 95 97
e 95 98
e 95 120
e 95 115
e 96 97
e 97 98
e 98 99
e 98 122
e 98 120
e 99 100
e 99 129
e 99 122
e 100 101
e 100 129
e 101 102
e 101 114
e 101 129
e 102 103
e 102 105
e 102 114
e 103 105
e 103 104
e 104 106
e 104 107
e 104 105
e 105 106
e 105 114
e 106 107
e 106 108
e 106 109
e 106 134
e 106 114
e 107 108
e 108 109
e 109 110
e 109 136
e 109 134
e 110 143
e 110 111
e 110 136
e 111 143
e 111 112
e 112 143
e 112 113
e 113 143
e 114 134
e 114 129
e 115 120
e 129 134
e 0 3
e 3 5
e 9 11
e 11 13
e 91 120
e 122 120
e 129 122
e 136 134
e 143 136
